c Generated map
c Size: 13 * 13, weights in range: 1 to 10, walls: False, with ratio 0.0
c dim 3 of 3
c
p sp 169 312
c graph contains 169 nodes and 312 arcs
c
a 1 14 10
a 14 1 10
a 1 2 6
a 2 1 6
a 2 15 6
a 15 2 6
a 2 3 4
a 3 2 4
a 3 16 10
a 16 3 10
a 3 4 5
a 4 3 5
a 4 17 2
a 17 4 2
a 4 5 3
a 5 4 3
a 5 18 6
a 18 5 6
a 5 6 10
a 6 5 10
a 6 19 2
a 19 6 2
a 6 7 7
a 7 6 7
a 7 20 3
a 20 7 3
a 7 8 10
a 8 7 10
a 8 21 10
a 21 8 10
a 8 9 5
a 9 8 5
a 9 22 3
a 22 9 3
a 9 10 2
a 10 9 2
a 10 23 6
a 23 10 6
a 10 11 5
a 11 10 5
a 11 24 5
a 24 11 5
a 11 12 4
a 12 11 4
a 12 25 4
a 25 12 4
a 12 13 5
a 13 12 5
a 13 26 7
a 26 13 7
a 14 27 2
a 27 14 2
a 14 15 9
a 15 14 9
a 15 28 3
a 28 15 3
a 15 16 9
a 16 15 9
a 16 29 8
a 29 16 8
a 16 17 5
a 17 16 5
a 17 30 9
a 30 17 9
a 17 18 2
a 18 17 2
a 18 31 8
a 31 18 8
a 18 19 8
a 19 18 8
a 19 32 6
a 32 19 6
a 19 20 3
a 20 19 3
a 20 33 5
a 33 20 5
a 20 21 2
a 21 20 2
a 21 34 6
a 34 21 6
a 21 22 1
a 22 21 1
a 22 35 2
a 35 22 2
a 22 23 4
a 23 22 4
a 23 36 3
a 36 23 3
a 23 24 8
a 24 23 8
a 24 37 6
a 37 24 6
a 24 25 6
a 25 24 6
a 25 38 2
a 38 25 2
a 25 26 6
a 26 25 6
a 26 39 1
a 39 26 1
a 27 40 10
a 40 27 10
a 27 28 3
a 28 27 3
a 28 41 1
a 41 28 1
a 28 29 7
a 29 28 7
a 29 42 7
a 42 29 7
a 29 30 10
a 30 29 10
a 30 43 4
a 43 30 4
a 30 31 5
a 31 30 5
a 31 44 6
a 44 31 6
a 31 32 2
a 32 31 2
a 32 45 10
a 45 32 10
a 32 33 10
a 33 32 10
a 33 46 3
a 46 33 3
a 33 34 5
a 34 33 5
a 34 47 9
a 47 34 9
a 34 35 1
a 35 34 1
a 35 48 2
a 48 35 2
a 35 36 4
a 36 35 4
a 36 49 7
a 49 36 7
a 36 37 1
a 37 36 1
a 37 50 10
a 50 37 10
a 37 38 10
a 38 37 10
a 38 51 2
a 51 38 2
a 38 39 2
a 39 38 2
a 39 52 7
a 52 39 7
a 40 53 2
a 53 40 2
a 40 41 5
a 41 40 5
a 41 54 4
a 54 41 4
a 41 42 1
a 42 41 1
a 42 55 7
a 55 42 7
a 42 43 4
a 43 42 4
a 43 56 1
a 56 43 1
a 43 44 1
a 44 43 1
a 44 57 9
a 57 44 9
a 44 45 7
a 45 44 7
a 45 58 1
a 58 45 1
a 45 46 7
a 46 45 7
a 46 59 5
a 59 46 5
a 46 47 5
a 47 46 5
a 47 60 7
a 60 47 7
a 47 48 2
a 48 47 2
a 48 61 5
a 61 48 5
a 48 49 2
a 49 48 2
a 49 62 2
a 62 49 2
a 49 50 1
a 50 49 1
a 50 63 9
a 63 50 9
a 50 51 2
a 51 50 2
a 51 64 7
a 64 51 7
a 51 52 9
a 52 51 9
a 52 65 3
a 65 52 3
a 53 66 1
a 66 53 1
a 53 54 2
a 54 53 2
a 54 67 1
a 67 54 1
a 54 55 5
a 55 54 5
a 55 68 10
a 68 55 10
a 55 56 1
a 56 55 1
a 56 69 8
a 69 56 8
a 56 57 1
a 57 56 1
a 57 70 6
a 70 57 6
a 57 58 9
a 58 57 9
a 58 71 3
a 71 58 3
a 58 59 8
a 59 58 8
a 59 72 3
a 72 59 3
a 59 60 9
a 60 59 9
a 60 73 2
a 73 60 2
a 60 61 1
a 61 60 1
a 61 74 5
a 74 61 5
a 61 62 1
a 62 61 1
a 62 75 1
a 75 62 1
a 62 63 3
a 63 62 3
a 63 76 2
a 76 63 2
a 63 64 8
a 64 63 8
a 64 77 8
a 77 64 8
a 64 65 2
a 65 64 2
a 65 78 3
a 78 65 3
a 66 79 5
a 79 66 5
a 66 67 3
a 67 66 3
a 67 80 3
a 80 67 3
a 67 68 6
a 68 67 6
a 68 81 2
a 81 68 2
a 68 69 1
a 69 68 1
a 69 82 3
a 82 69 3
a 69 70 1
a 70 69 1
a 70 83 7
a 83 70 7
a 70 71 5
a 71 70 5
a 71 84 6
a 84 71 6
a 71 72 3
a 72 71 3
a 72 85 3
a 85 72 3
a 72 73 4
a 73 72 4
a 73 86 7
a 86 73 7
a 73 74 8
a 74 73 8
a 74 87 3
a 87 74 3
a 74 75 6
a 75 74 6
a 75 88 7
a 88 75 7
a 75 76 2
a 76 75 2
a 76 89 7
a 89 76 7
a 76 77 1
a 77 76 1
a 77 90 10
a 90 77 10
a 77 78 6
a 78 77 6
a 78 91 5
a 91 78 5
a 79 92 2
a 92 79 2
a 79 80 7
a 80 79 7
a 80 93 2
a 93 80 2
a 80 81 10
a 81 80 10
a 81 94 6
a 94 81 6
a 81 82 2
a 82 81 2
a 82 95 10
a 95 82 10
a 82 83 6
a 83 82 6
a 83 96 7
a 96 83 7
a 83 84 8
a 84 83 8
a 84 97 2
a 97 84 2
a 84 85 10
a 85 84 10
a 85 98 9
a 98 85 9
a 85 86 5
a 86 85 5
a 86 99 8
a 99 86 8
a 86 87 6
a 87 86 6
a 87 100 7
a 100 87 7
a 87 88 2
a 88 87 2
a 88 101 5
a 101 88 5
a 88 89 9
a 89 88 9
a 89 102 5
a 102 89 5
a 89 90 9
a 90 89 9
a 90 103 6
a 103 90 6
a 90 91 3
a 91 90 3
a 91 104 10
a 104 91 10
a 92 105 3
a 105 92 3
a 92 93 5
a 93 92 5
a 93 106 7
a 106 93 7
a 93 94 8
a 94 93 8
a 94 107 9
a 107 94 9
a 94 95 4
a 95 94 4
a 95 108 5
a 108 95 5
a 95 96 10
a 96 95 10
a 96 109 2
a 109 96 2
a 96 97 7
a 97 96 7
a 97 110 3
a 110 97 3
a 97 98 7
a 98 97 7
a 98 111 7
a 111 98 7
a 98 99 8
a 99 98 8
a 99 112 7
a 112 99 7
a 99 100 9
a 100 99 9
a 100 113 8
a 113 100 8
a 100 101 1
a 101 100 1
a 101 114 8
a 114 101 8
a 101 102 9
a 102 101 9
a 102 115 8
a 115 102 8
a 102 103 9
a 103 102 9
a 103 116 9
a 116 103 9
a 103 104 5
a 104 103 5
a 104 117 4
a 117 104 4
a 105 118 5
a 118 105 5
a 105 106 5
a 106 105 5
a 106 119 4
a 119 106 4
a 106 107 2
a 107 106 2
a 107 120 1
a 120 107 1
a 107 108 10
a 108 107 10
a 108 121 4
a 121 108 4
a 108 109 10
a 109 108 10
a 109 122 7
a 122 109 7
a 109 110 10
a 110 109 10
a 110 123 8
a 123 110 8
a 110 111 9
a 111 110 9
a 111 124 10
a 124 111 10
a 111 112 7
a 112 111 7
a 112 125 1
a 125 112 1
a 112 113 7
a 113 112 7
a 113 126 9
a 126 113 9
a 113 114 2
a 114 113 2
a 114 127 6
a 127 114 6
a 114 115 1
a 115 114 1
a 115 128 8
a 128 115 8
a 115 116 2
a 116 115 2
a 116 129 9
a 129 116 9
a 116 117 9
a 117 116 9
a 117 130 9
a 130 117 9
a 118 131 9
a 131 118 9
a 118 119 10
a 119 118 10
a 119 132 10
a 132 119 10
a 119 120 9
a 120 119 9
a 120 133 9
a 133 120 9
a 120 121 6
a 121 120 6
a 121 134 3
a 134 121 3
a 121 122 3
a 122 121 3
a 122 135 6
a 135 122 6
a 122 123 7
a 123 122 7
a 123 136 9
a 136 123 9
a 123 124 4
a 124 123 4
a 124 137 8
a 137 124 8
a 124 125 10
a 125 124 10
a 125 138 9
a 138 125 9
a 125 126 7
a 126 125 7
a 126 139 9
a 139 126 9
a 126 127 2
a 127 126 2
a 127 140 10
a 140 127 10
a 127 128 3
a 128 127 3
a 128 141 1
a 141 128 1
a 128 129 1
a 129 128 1
a 129 142 1
a 142 129 1
a 129 130 9
a 130 129 9
a 130 143 4
a 143 130 4
a 131 144 3
a 144 131 3
a 131 132 5
a 132 131 5
a 132 145 10
a 145 132 10
a 132 133 3
a 133 132 3
a 133 146 10
a 146 133 10
a 133 134 10
a 134 133 10
a 134 147 7
a 147 134 7
a 134 135 2
a 135 134 2
a 135 148 5
a 148 135 5
a 135 136 2
a 136 135 2
a 136 149 4
a 149 136 4
a 136 137 4
a 137 136 4
a 137 150 7
a 150 137 7
a 137 138 1
a 138 137 1
a 138 151 6
a 151 138 6
a 138 139 1
a 139 138 1
a 139 152 8
a 152 139 8
a 139 140 7
a 140 139 7
a 140 153 6
a 153 140 6
a 140 141 6
a 141 140 6
a 141 154 5
a 154 141 5
a 141 142 3
a 142 141 3
a 142 155 8
a 155 142 8
a 142 143 4
a 143 142 4
a 143 156 5
a 156 143 5
a 144 157 10
a 157 144 10
a 144 145 2
a 145 144 2
a 145 158 2
a 158 145 2
a 145 146 2
a 146 145 2
a 146 159 1
a 159 146 1
a 146 147 9
a 147 146 9
a 147 160 10
a 160 147 10
a 147 148 8
a 148 147 8
a 148 161 7
a 161 148 7
a 148 149 5
a 149 148 5
a 149 162 5
a 162 149 5
a 149 150 3
a 150 149 3
a 150 163 7
a 163 150 7
a 150 151 6
a 151 150 6
a 151 164 5
a 164 151 5
a 151 152 8
a 152 151 8
a 152 165 2
a 165 152 2
a 152 153 6
a 153 152 6
a 153 166 2
a 166 153 2
a 153 154 9
a 154 153 9
a 154 167 2
a 167 154 2
a 154 155 7
a 155 154 7
a 155 168 10
a 168 155 10
a 155 156 7
a 156 155 7
a 156 169 4
a 169 156 4
a 157 158 10
a 158 157 10
a 158 159 6
a 159 158 6
a 159 160 9
a 160 159 9
a 160 161 5
a 161 160 5
a 161 162 9
a 162 161 9
a 162 163 2
a 163 162 2
a 163 164 7
a 164 163 7
a 164 165 5
a 165 164 5
a 165 166 1
a 166 165 1
a 166 167 8
a 167 166 8
a 167 168 5
a 168 167 5
a 168 169 10
a 169 168 10
